db/data/32288382132116218432192013265253737407.z3.out
-------------------
2500.224863314
